certificates/rado_a9_c169_N20.cnf
c Rad2 upper bound instance: x1 + 9*x2 - x3 = 169, interval [1,20]
p cnf 20 88
1 3 19 0
-1 -3 -19 0
1 12 20 0
-1 -12 -20 0
2 4 19 0
-2 -4 -19 0
2 13 20 0
-2 -13 -20 0
3 5 19 0
-3 -5 -19 0
3 14 20 0
-3 -14 -20 0
4 6 19 0
-4 -6 -19 0
4 15 20 0
-4 -15 -20 0
5 7 19 0
-5 -7 -19 0
5 16 20 0
-5 -16 -20 0
6 8 19 0
-6 -8 -19 0
6 17 20 0
-6 -17 -20 0
7 9 19 0
-7 -9 -19 0
7 18 20 0
-7 -18 -20 0
1 8 18 0
-1 -8 -18 0
8 10 19 0
-8 -10 -19 0
8 19 20 0
-8 -19 -20 0
2 9 18 0
-2 -9 -18 0
9 11 19 0
-9 -11 -19 0
9 20 0
-9 -20 0
3 10 18 0
-3 -10 -18 0
10 12 19 0
-10 -12 -19 0
4 11 18 0
-4 -11 -18 0
11 13 19 0
-11 -13 -19 0
5 12 18 0
-5 -12 -18 0
12 14 19 0
-12 -14 -19 0
6 13 18 0
-6 -13 -18 0
13 15 19 0
-13 -15 -19 0
7 14 18 0
-7 -14 -18 0
14 16 19 0
-14 -16 -19 0
8 15 18 0
-8 -15 -18 0
15 17 19 0
-15 -17 -19 0
9 16 18 0
-9 -16 -18 0
16 18 19 0
-16 -18 -19 0
1 17 0
-1 -17 0
10 17 18 0
-10 -17 -18 0
17 19 0
-17 -19 0
2 17 18 0
-2 -17 -18 0
11 18 0
-11 -18 0
18 19 20 0
-18 -19 -20 0
3 17 19 0
-3 -17 -19 0
12 18 19 0
-12 -18 -19 0
4 17 20 0
-4 -17 -20 0
13 18 20 0
-13 -18 -20 0
