certificates/rado_a9_c169_N20.drat
-19 -20 0
-20 0
9 0
19 0
-17 0
-7 0
-11 0
1 0
6 0
4 0
18 0
-3 0
0
